(set-info :source |
 Generated by Alive 0.1
 More info in N. P. Lopes, D. Menendez, S. Nagarakatte, J. Regehr.
 Provably Correct Peephole Optimizations with Alive. In PLDI'15.
|)

(set-info :status unknown)
(declare-fun mem0 () (_ BitVec 8))
(declare-fun C2 () (_ BitVec 12))
(declare-fun C1 () (_ BitVec 12))
(assert
 (let (($x927 (and (distinct mem0 mem0) true)))
 (let ((?x53225 (bvshl (_ bv1 12) (bvsub (_ bv12 12) (_ bv1 12)))))
 (let (($x208113 (= C2 ?x53225)))
 (let (($x175702 (bvslt C1 C2)))
 (and $x175702 $x208113 $x927))))))
(check-sat)
